p cnf 43 141
4 -2 0
4 3 0
2 -3 -4 0
6 -4 0
6 -5 0
4 5 -6 0
7 1 0
7 -6 0
-1 6 -7 0
9 -7 0
9 -8 0
7 8 -9 0
12 -10 0
12 11 0
10 -11 -12 0
-13 -7 0
-13 -12 0
7 12 13 0
-14 -7 0
-14 -13 0
7 13 14 0
9 -14 -15 0
-9 14 -15 0
9 14 15 0
-9 -14 15 0
17 -2 0
17 16 0
2 -16 -17 0
-18 -15 0
-18 17 0
15 -17 18 0
19 -2 0
19 16 0
2 -16 -19 0
20 10 0
20 2 0
-10 -2 -20 0
19 -20 -21 0
-19 20 -21 0
19 20 21 0
-19 -20 21 0
18 -21 -22 0
-18 21 -22 0
18 21 22 0
-18 -21 22 0
24 -23 0
24 -23 0
23 -24 0
-25 10 0
-25 -13 0
-10 13 25 0
24 -25 -26 0
-24 25 -26 0
24 25 26 0
-24 -25 26 0
27 -7 0
27 10 0
7 -10 -27 0
28 -7 0
28 27 0
7 -27 -28 0
2 27 -29 0
-2 -27 -29 0
2 -27 29 0
-2 27 29 0
-28 29 -30 0
28 -29 -30 0
-28 -29 30 0
28 29 30 0
-8 -12 -32 0
8 12 -32 0
-8 12 32 0
8 -12 32 0
33 31 0
33 -32 0
-31 32 -33 0
-34 -5 0
-34 31 0
5 -31 34 0
-35 33 0
-35 34 0
-33 -34 35 0
5 16 -36 0
-5 -16 -36 0
5 -16 36 0
-5 16 36 0
2 36 -37 0
-2 -36 -37 0
2 -36 37 0
-2 36 37 0
38 35 0
38 37 0
-35 -37 -38 0
39 30 0
39 -38 0
-30 38 -39 0
40 -12 0
40 -36 0
12 36 -40 0
-41 39 0
-41 -40 0
-39 40 41 0
42 26 0
42 -41 0
-26 41 -42 0
43 22 0
43 -42 0
-22 42 -43 0
20 -18 -21 -8 0
3 -41 31 -16 0
25 -23 -32 31 -9 0
-32 -16 -9 0
36 8 27 0
30 -9 1 0
-43 -31 32 21 -13 0
27 -34 29 0
-43 1 0
36 -20 17 -19 43 33 0
-41 34 31 -14 0
-6 -12 0
27 -22 28 30 13 36 0
-30 7 -28 23 14 33 0
23 -26 -43 28 -20 -12 0
19 -8 3 32 15 12 0
35 -12 1 41 -18 0
3 19 0
41 -17 -22 8 0
-24 -34 -29 0
23 31 43 -24 0
25 2 -15 10 0
40 -23 -10 0
18 38 21 -24 32 0
-4 38 -7 0
4 -43 12 0
-19 35 -38 0
-42 -27 19 -5 -34 0
-15 42 17 16 0
9 -11 -24 -25 -2 0
-1 -7 -8 -28 -39 0
35 16 0
43 0
